10000011010100011011000010        416
00010010100100110001100110        429
00010010100100110001100110        429
11111111110111110001001110        495
11111111110111110001001110        495
11111111110111110001001110        495
11111111110111110001001110        495
11111111110111110001001110        495
11111111110111110001001110        495
11111111110111110001001110        495
11111111110111110001001110        495
11111111110111110001001110        495
11111111110111110001001110        495
11111111110111110001001110        495
11111111110111110001001110        495
11111111110111110001001110        495
11111111110111110001001110        495
11111111110111110001001110        495
11111111110111110001001110        495
11111111110111110001001110        495
11111111110111110001001110        495
11111111110111110001001110        495
11111111110111110001001110        495
11111111110111110001001110        495
11111111110111110001001110        495
11111111110111110001001110        495
11111111110111110001001110        495
11111111110111110001001110        495
11111111110111110001001110        495
11111111110111110001001110        495
11111111110111110001001110        495
11111111110111110001001110        495
11111111110111110001001110        495
11111111110111110001001110        495
11111111110111110001001110        495
11111111110111110001001110        495
11111111110111110001001110        495
11111111110111110001001110        495
11111111110111110001001110        495
11111111110111110001001110        495
11111111110111110001001110        495
11111111110111110001001110        495
11111111110111110001001110        495
11111111110111110001001110        495
11111111110111110001001110        495
11111111110111110001001110        495
11111111110111110001001110        495
11111111110111110001001110        495
11111111110111110001001110        495
11111111110111110001001110        495
11111111110111110001001110        495
11111111110111110001001110        495
11111111110111110001001110        495
11111111110111110001001110        495
11111111110111110001001110        495
11111111110111110001001110        495
11111111110111110001001110        495
11111111110111110001001110        495
11111111110111110001001110        495
11111111110111110001001110        495
11111111110111110001001110        495
11111111110111110001001110        495
11111111110111110001001110        495
11111111110111110001001110        495
11111111110111110001001110        495
11111111110111110001001110        495
11111111110111110001001110        495
11111111110111110001001110        495
11111111110111110001001110        495
11111111110111110001001110        495
11111111110111110001001110        495
11111111110111110001001110        495
11111111110111110001001110        495
11111111110111110001001110        495
11111111110111110001001110        495
11111111110111110001001110        495
11111111110111110001001110        495
11111111110111110001001110        495
11111111110111110001001110        495
11111111110111110001001110        495
11111111110111110001001110        495
11111111110111110001001110        495
11111111110111110001001110        495
11111111110111110001001110        495
11111111110111110001001110        495
11111111110111110001001110        495
11111111110111110001001110        495
11111111110111110001001110        495
11111111110111110001001110        495
11111111110111110001001110        495
11111111110111110001001110        495
11111111110111110001001110        495
11111111110111110001001110        495
11111111110111110001001110        495
11111111110111110001001110        495
11111111110111110001001110        495
11111111110111110001001110        495
11111111110111110001001110        495
11111111110111110001001110        495
11111111110111110001001110        495
11111111110111110001001110        495
11111111110111110001001110        495
11111111110111110001001110        495
11111111110111110001001110        495
11111111110111110001001110        495
11111111110111110001001110        495
11111111110111110001001110        495
11111111110111110001001110        495
11111111110111110001001110        495
11111111110111110001001110        495
11111111110111110001001110        495
11111111110111110001001110        495
11111111110111110001001110        495
11111111110111110001001110        495
11111111110111110001001110        495
11111111110111110001001110        495
11111111110111110001001110        495
11111111110111110001001110        495
11111111110111110001001110        495
11111111110111110001001110        495
11111111110111110001001110        495
11111111110111110001001110        495
11111111110111110001001110        495
11111111110111110001001110        495
11111111110111110001001110        495
11111111110111110001001110        495
11111111110111110001001110        495
11111111110111110001001110        495
11111111110111110001001110        495
11111111110111110001001110        495
11111111110111110001001110        495
11111111110111110001001110        495
11111111110111110001001110        495
11111111110111110001001110        495
11111111110111110001001110        495
11111111110111110001001110        495
11111111110111110001001110        495
11111111110111110001001110        495
11111111110111110001001110        495
11111111110111110001001110        495
11111111110111110001001110        495
11111111110111110001001110        495
11111111110111110001001110        495
11111111110111110001001110        495
11111111110111110001001110        495
11111111110111110001001110        495
11111111110111110001001110        495
11111111110111110001001110        495
11111111110111110001001110        495
11111111110111110001001110        495
11111111110111110001001110        495
11111111110111110001001110        495
11111111110111110001001110        495
11111111110111110001001110        495
11111111110111110001001110        495
11111111110111110001001110        495
11111111110111110001001110        495
11111111110111110001001110        495
11111111110111110001001110        495
11111111110111110001001110        495
11111111110111110001001110        495
11111111110111110001001110        495
11111111110111110001001110        495
11111111110111110001001110        495
11111111110111110001001110        495
11111111110111110001001110        495
11111111110111110001001110        495
11111111110111110001001110        495
11111111110111110001001110        495
11111111110111110001001110        495
11111111110111110001001110        495
11111111110111110001001110        495
11111111110111110001001110        495
11111111110111110001001110        495
11111111110111110001001110        495
11111111110111110001001110        495
11111111110111110001001110        495
11111111110111110001001110        495
11111111110111110001001110        495
11111111110111110001001110        495
11111111110111110001001110        495
11111111110111110001001110        495
11111111110111110001001110        495
11111111110111110001001110        495
11111111110111110001001110        495
11111111110111110001001110        495
11111111110111110001001110        495
11111111110111110001001110        495
11111111110111110001001110        495
11111111110111110001001110        495
11111111110111110001001110        495
11111111110111110001001110        495
11111111110111110001001110        495
11111111110111110001001110        495
11111111110111110001001110        495
11111111110111110001001110        495
11111111110111110001001110        495
11111111110111110001001110        495
11111111110111110001001110        495
11111111110111110001001110        495
11111111110111110001001110        495
11111111110111110001001110        495
11111111110111110001001110        495
11111111110111110001001110        495
11111111110111110001001110        495
11111111110111110001001110        495
11111111110111110001001110        495
11111111110111110001001110        495
11111111110111110001001110        495
11111111110111110001001110        495
11111111110111110001001110        495
11111111110111110001001110        495
11111111110111110001001110        495
11111111110111110001001110        495
11111111110111110001001110        495
11111111110111110001001110        495
11111111110111110001001110        495
11111111110111110001001110        495
11111111110111110001001110        495
11111111110111110001001110        495
11111111110111110001001110        495
11111111110111110001001110        495
11111111110111110001001110        495
11111111110111110001001110        495
11111111110111110001001110        495
11111111110111110001001110        495
11111111110111110001001110        495
11111111110111110001001110        495
11111111110111110001001110        495
11111111110111110001001110        495
11111111110111110001001110        495
11111111110111110001001110        495
11111111110111110001001110        495
11111111110111110001001110        495
11111111110111110001001110        495
11111111110111110001001110        495
11111111110111110001001110        495
11111111110111110001001110        495
11111111110111110001001110        495
11111111110111110001001110        495
11111111110111110001001110        495
11111111110111110001001110        495
11111111110111110001001110        495
11111111110111110001001110        495
11111111110111110001001110        495
11111111110111110001001110        495
11111111110111110001001110        495
11111111110111110001001110        495
11111111110111110001001110        495
11111111110111110001001110        495
11111111110111110001001110        495
11111111110111110001001110        495
11111111110111110001001110        495
11111111110111110001001110        495
11111111110111110001001110        495
11111111110111110001001110        495
11111111110111110001001110        495
11111111110111110001001110        495
11111111110111110001001110        495
11111111110111110001001110        495
11111111110111110001001110        495
11111111110111110001001110        495
11111111110111110001001110        495
11111111110111110001001110        495
11111111110111110001001110        495
11111111110111110001001110        495
11111111110111110001001110        495
11111111110111110001001110        495
11111111110111110001001110        495
11111111110111110001001110        495
11111111110111110001001110        495
11111111110111110001001110        495
11111111110111110001001110        495
11111111110111110001001110        495
11111111110111110001001110        495
11111111110111110001001110        495
11111111110111110001001110        495
11111111110111110001001110        495
11111111110111110001001110        495
11111111110111110001001110        495
11111111110111110001001110        495
11111111110111110001001110        495
11111111110111110001001110        495
11111111110111110001001110        495
11111111110111110001001110        495
11111111110111110001001110        495
11111111110111110001001110        495
11111111110111110001001110        495
11111111110111110001001110        495
11111111110111110001001110        495
11111111110111110001001110        495
11111111110111110001001110        495
11111111110111110001001110        495
11111111110111110001001110        495
11111111110111110001001110        495
11111111110111110001001110        495
11111111110111110001001110        495
11111111110111110001001110        495
11111111110111110001001110        495
11111111110111110001001110        495
11111111110111110001001110        495
11111111110111110001001110        495
11111111110111110001001110        495
11111111110111110001001110        495
11111111110111110001001110        495
11111111110111110001001110        495
11111111110111110001001110        495
11111111110111110001001110        495
11111111110111110001001110        495
11111111110111110001001110        495
11111111110111110001001110        495
11111111110111110001001110        495
11111111110111110001001110        495
11111111110111110001001110        495
11111111110111110001001110        495
11111111110111110001001110        495
11111111110111110001001110        495
11111111110111110001001110        495
11111111110111110001001110        495
11111111110111110001001110        495
11111111110111110001001110        495
11111111110111110001001110        495
11111111110111110001001110        495
11111111110111110001001110        495
11111111110111110001001110        495
11111111110111110001001110        495
11111111110111110001001110        495
11111111110111110001001110        495
11111111110111110001001110        495
11111111110111110001001110        495
11111111110111110001001110        495
11111111110111110001001110        495
11111111110111110001001110        495
11111111110111110001001110        495
11111111110111110001001110        495
11111111110111110001001110        495
11111111110111110001001110        495
11111111110111110001001110        495
11111111110111110001001110        495
11111111110111110001001110        495
11111111110111110001001110        495
11111111110111110001001110        495
11111111110111110001001110        495
11111111110111110001001110        495
11111111110111110001001110        495
11111111110111110001001110        495
11111111110111110001001110        495
11111111110111110001001110        495
11111111110111110001001110        495
11111111110111110001001110        495
11111111110111110001001110        495
11111111110111110001001110        495
11111111110111110001001110        495
11111111110111110001001110        495
11111111110111110001001110        495
11111111110111110001001110        495
11111111110111110001001110        495
11111111110111110001001110        495
11111111110111110001001110        495
11111111110111110001001110        495
11111111110111110001001110        495
11111111110111110001001110        495
11111111110111110001001110        495
11111111110111110001001110        495
11111111110111110001001110        495
11111111110111110001001110        495
11111111110111110001001110        495
11111111110111110001001110        495
11111111110111110001001110        495
11111111110111110001001110        495
11111111110111110001001110        495
11111111110111110001001110        495
11111111110111110001001110        495
11111111110111110001001110        495
11111111110111110001001110        495
11111111110111110001001110        495
11111111110111110001001110        495
11111111110111110001001110        495
11111111110111110001001110        495
11111111110111110001001110        495
11111111110111110001001110        495
11111111110111110001001110        495
11111111110111110001001110        495
11111111110111110001001110        495
11111111110111110001001110        495
11111111110111110001001110        495
11111111110111110001001110        495
11111111110111110001001110        495
11111111110111110001001110        495
11111111110111110001001110        495
11111111110111110001001110        495
11111111110111110001001110        495
11111111110111110001001110        495
11111111110111110001001110        495
11111111110111110001001110        495
11111111110111110001001110        495
11111111110111110001001110        495
11111111110111110001001110        495
11111111110111110001001110        495
11111111110111110001001110        495
11111111110111110001001110        495
11111111110111110001001110        495
11111111110111110001001110        495
11111111110111110001001110        495
11111111110111110001001110        495
11111111110111110001001110        495
11111111110111110001001110        495
11111111110111110001001110        495
11111111110111110001001110        495
11111111110111110001001110        495
11111111110111110001001110        495
11111111110111110001001110        495
11111111110111110001001110        495
11111111110111110001001110        495
11111111110111110001001110        495
11111111110111110001001110        495
11111111110111110001001110        495
11111111110111110001001110        495
11111111110111110001001110        495
11111111110111110001001110        495
11111111110111110001001110        495
11111111110111110001001110        495
11111111110111110001001110        495
11111111110111110001001110        495
11111111110111110001001110        495
11111111110111110001001110        495
11111111110111110001001110        495
11111111110111110001001110        495
11111111110111110001001110        495
11111111110111110001001110        495
11111111110111110001001110        495
11111111110111110001001110        495
11111111110111110001001110        495
11111111110111110001001110        495
11111111110111110001001110        495
11111111110111110001001110        495
11111111110111110001001110        495
11111111110111110001001110        495
11111111110111110001001110        495
11111111110111110001001110        495
11111111110111110001001110        495
11111111110111110001001110        495
11111111110111110001001110        495
11111111110111110001001110        495
11111111110111110001001110        495
11111111110111110001001110        495
11111111110111110001001110        495
11111111110111110001001110        495
11111111110111110001001110        495
11111111110111110001001110        495
11111111110111110001001110        495
11111111110111110001001110        495
11111111110111110001001110        495
11111111110111110001001110        495
11111111110111110001001110        495
11111111110111110001001110        495
11111111110111110001001110        495
11111111110111110001001110        495
11111111110111110001001110        495
11111111110111110001001110        495
11111111110111110001001110        495
11111111110111110001001110        495
11111111110111110001001110        495
11111111110111110001001110        495
11111111110111110001001110        495
11111111110111110001001110        495
11111111110111110001001110        495
11111111110111110001001110        495
11111111110111110001001110        495
11111111110111110001001110        495
11111111110111110001001110        495
11111111110111110001001110        495
11111111110111110001001110        495
11111111110111110001001110        495
11111111110111110001001110        495
11111111110111110001001110        495
11111111110111110001001110        495
11111111110111110001001110        495
11111111110111110001001110        495
11111111110111110001001110        495
11111111110111110001001110        495
11111111110111110001001110        495
11111111110111110001001110        495
11111111110111110001001110        495
11111111110111110001001110        495
11111111110111110001001110        495
11111111110111110001001110        495
11111111110111110001001110        495
11111111110111110001001110        495
11111111110111110001001110        495
11111111110111110001001110        495
11111111110111110001001110        495
11111111110111110001001110        495
11111111110111110001001110        495
11111111110111110001001110        495
11111111110111110001001110        495
11111111110111110001001110        495
11111111110111110001001110        495
11111111110111110001001110        495
11111111110111110001001110        495
11111111110111110001001110        495
11111111110111110001001110        495
11111111110111110001001110        495
11111111110111110001001110        495
11111111110111110001001110        495
11111111110111110001001110        495
11111111110111110001001110        495
11111111110111110001001110        495
11111111110111110001001110        495
11111111110111110001001110        495
11111111110111110001001110        495
11111111110111110001001110        495
11111111110111110001001110        495
11111111110111110001001110        495
11111111110111110001001110        495
11111111110111110001001110        495
11111111110111110001001110        495
11111111110111110001001110        495
11111111110111110001001110        495
11111111110111110001001110        495
11111111110111110001001110        495
11111111110111110001001110        495
11111111110111110001001110        495
11111111110111110001001110        495
11111111110111110001001110        495
11111111110111110001001110        495
11111111110111110001001110        495
11111111110111110001001110        495
11111111110111110001001110        495
11111111110111110001001110        495
11111111110111110001001110        495
11111111110111110001001110        495
11111111110111110001001110        495
11111111110111110001001110        495
11111111110111110001001110        495
11111111110111110001001110        495
11111111110111110001001110        495
11111111110111110001001110        495
11111111110111110001001110        495
11111111110111110001001110        495
11111111110111110001001110        495
11111111110111110001001110        495
11111111110111110001001110        495
11111111110111110001001110        495
11111111110111110001001110        495
11111111110111110001001110        495
11111111110111110001001110        495
11111111110111110001001110        495
11111111110111110001001110        495
11111111110111110001001110        495
11111111110111110001001110        495
11111111110111110001001110        495
11111111110111110001001110        495
11111111110111110001001110        495
11111111110111110001001110        495
11111111110111110001001110        495
11111111110111110001001110        495
11111111110111110001001110        495
11111111110111110001001110        495
11111111110111110001001110        495
11111111110111110001001110        495
11111111110111110001001110        495
11111111110111110001001110        495
11111111110111110001001110        495
11111111110111110001001110        495
11111111110111110001001110        495
11111111110111110001001110        495
11111111110111110001001110        495
11111111110111110001001110        495
11111111110111110001001110        495
11111111110111110001001110        495
11111111110111110001001110        495
11111111110111110001001110        495
11111111110111110001001110        495
11111111110111110001001110        495
11111111110111110001001110        495
11111111110111110001001110        495
11111111110111110001001110        495
11111111110111110001001110        495
11111111110111110001001110        495
11111111110111110001001110        495
11111111110111110001001110        495
11111111110111110001001110        495
11111111110111110001001110        495
11111111110111110001001110        495
11111111110111110001001110        495
11111111110111110001001110        495
11111111110111110001001110        495
11111111110111110001001110        495
11111111110111110001001110        495
11111111110111110001001110        495
11111111110111110001001110        495
11111111110111110001001110        495
11111111110111110001001110        495
11111111110111110001001110        495
11111111110111110001001110        495
11111111110111110001001110        495
11111111110111110001001110        495
11111111110111110001001110        495
11111111110111110001001110        495
11111111110111110001001110        495
11111111110111110001001110        495
11111111110111110001001110        495
11111111110111110001001110        495
11111111110111110001001110        495
11111111110111110001001110        495
11111111110111110001001110        495
11111111110111110001001110        495
11111111110111110001001110        495
11111111110111110001001110        495
11111111110111110001001110        495
11111111110111110001001110        495
11111111110111110001001110        495
11111111110111110001001110        495
11111111110111110001001110        495
11111111110111110001001110        495
11111111110111110001001110        495
11111111110111110001001110        495
11111111110111110001001110        495
11111111110111110001001110        495
11111111110111110001001110        495
11111111110111110001001110        495
11111111110111110001001110        495
11111111110111110001001110        495
11111111110111110001001110        495
11111111110111110001001110        495
11111111110111110001001110        495
11111111110111110001001110        495
11111111110111110001001110        495
11111111110111110001001110        495
11111111110111110001001110        495
11111111110111110001001110        495
11111111110111110001001110        495
11111111110111110001001110        495
11111111110111110001001110        495
11111111110111110001001110        495
11111111110111110001001110        495
11111111110111110001001110        495
11111111110111110001001110        495
11111111110111110001001110        495
11111111110111110001001110        495
11111111110111110001001110        495
11111111110111110001001110        495
11111111110111110001001110        495
11111111110111110001001110        495
11111111110111110001001110        495
11111111110111110001001110        495
11111111110111110001001110        495
11111111110111110001001110        495
11111111110111110001001110        495
11111111110111110001001110        495
11111111110111110001001110        495
11111111110111110001001110        495
11111111110111110001001110        495
11111111110111110001001110        495
11111111110111110001001110        495
11111111110111110001001110        495
11111111110111110001001110        495
11111111110111110001001110        495
11111111110111110001001110        495
11111111110111110001001110        495
11111111110111110001001110        495
11111111110111110001001110        495
11111111110111110001001110        495
11111111110111110001001110        495
11111111110111110001001110        495
11111111110111110001001110        495
11111111110111110001001110        495
11111111110111110001001110        495
11111111110111110001001110        495
11111111110111110001001110        495
11111111110111110001001110        495
11111111110111110001001110        495
11111111110111110001001110        495
11111111110111110001001110        495
11111111110111110001001110        495
11111111110111110001001110        495
11111111110111110001001110        495
11111111110111110001001110        495
11111111110111110001001110        495
11111111110111110001001110        495
11111111110111110001001110        495
11111111110111110001001110        495
11111111110111110001001110        495
11111111110111110001001110        495
11111111110111110001001110        495
11111111110111110001001110        495
11111111110111110001001110        495
11111111110111110001001110        495
11111111110111110001001110        495
11111111110111110001001110        495
11111111110111110001001110        495
11111111110111110001001110        495
11111111110111110001001110        495
11111111110111110001001110        495
11111111110111110001001110        495
11111111110111110001001110        495
11111111110111110001001110        495
11111111110111110001001110        495
11111111110111110001001110        495
11111111110111110001001110        495
11111111110111110001001110        495
11111111110111110001001110        495
11111111110111110001001110        495
11111111110111110001001110        495
11111111110111110001001110        495
11111111110111110001001110        495
11111111110111110001001110        495
11111111110111110001001110        495
11111111110111110001001110        495
11111111110111110001001110        495
11111111110111110001001110        495
11111111110111110001001110        495
11111111110111110001001110        495
11111111110111110001001110        495
11111111110111110001001110        495
11111111110111110001001110        495
11111111110111110001001110        495
11111111110111110001001110        495
11111111110111110001001110        495
11111111110111110001001110        495
11111111110111110001001110        495
11111111110111110001001110        495
11111111110111110001001110        495
11111111110111110001001110        495
11111111110111110001001110        495
11111111110111110001001110        495
11111111110111110001001110        495
11111111110111110001001110        495
11111111110111110001001110        495
11111111110111110001001110        495
11111111110111110001001110        495
11111111110111110001001110        495
11111111110111110001001110        495
11111111110111110001001110        495
11111111110111110001001110        495
11111111110111110001001110        495
11111111110111110001001110        495
11111111110111110001001110        495
11111111110111110001001110        495
11111111110111110001001110        495
11111111110111110001001110        495
11111111110111110001001110        495
11111111110111110001001110        495
11111111110111110001001110        495
11111111110111110001001110        495
11111111110111110001001110        495
11111111110111110001001110        495
11111111110111110001001110        495
11111111110111110001001110        495
11111111110111110001001110        495
11111111110111110001001110        495
11111111110111110001001110        495
11111111110111110001001110        495
11111111110111110001001110        495
11111111110111110001001110        495
11111111110111110001001110        495
11111111110111110001001110        495
11111111110111110001001110        495
11111111110111110001001110        495
11111111110111110001001110        495
11111111110111110001001110        495
11111111110111110001001110        495
11111111110111110001001110        495
11111111110111110001001110        495
11111111110111110001001110        495
11111111110111110001001110        495
11111111110111110001001110        495
11111111110111110001001110        495
11111111110111110001001110        495
11111111110111110001001110        495
11111111110111110001001110        495
11111111110111110001001110        495
11111111110111110001001110        495
11111111110111110001001110        495
11111111110111110001001110        495
11111111110111110001001110        495
11111111110111110001001110        495
11111111110111110001001110        495
11111111110111110001001110        495
11111111110111110001001110        495
11111111110111110001001110        495
11111111110111110001001110        495
11111111110111110001001110        495
11111111110111110001001110        495
11111111110111110001001110        495
11111111110111110001001110        495
11111111110111110001001110        495
11111111110111110001001110        495
11111111110111110001001110        495
11111111110111110001001110        495
11111111110111110001001110        495
11111111110111110001001110        495
11111111110111110001001110        495
11111111110111110001001110        495
11111111110111110001001110        495
11111111110111110001001110        495
11111111110111110001001110        495
11111111110111110001001110        495
11111111110111110001001110        495
11111111110111110001001110        495
11111111110111110001001110        495
11111111110111110001001110        495
11111111110111110001001110        495
11111111110111110001001110        495
11111111110111110001001110        495
11111111110111110001001110        495
11111111110111110001001110        495
11111111110111110001001110        495
11111111110111110001001110        495
11111111110111110001001110        495
11111111110111110001001110        495
11111111110111110001001110        495
11111111110111110001001110        495
11111111110111110001001110        495
11111111110111110001001110        495
11111111110111110001001110        495
11111111110111110001001110        495
11111111110111110001001110        495
11111111110111110001001110        495
11111111110111110001001110        495
11111111110111110001001110        495
11111111110111110001001110        495
11111111110111110001001110        495
11111111110111110001001110        495
11111111110111110001001110        495
11111111110111110001001110        495
11111111110111110001001110        495
11111111110111110001001110        495
11111111110111110001001110        495
11111111110111110001001110        495
11111111110111110001001110        495
11111111110111110001001110        495
11111111110111110001001110        495
11111111110111110001001110        495
11111111110111110001001110        495
11111111110111110001001110        495
11111111110111110001001110        495
11111111110111110001001110        495
11111111110111110001001110        495
11111111110111110001001110        495
11111111110111110001001110        495
11111111110111110001001110        495
11111111110111110001001110        495
11111111110111110001001110        495
11111111110111110001001110        495
11111111110111110001001110        495
11111111110111110001001110        495
11111111110111110001001110        495
11111111110111110001001110        495
11111111110111110001001110        495
11111111110111110001001110        495
11111111110111110001001110        495
11111111110111110001001110        495
11111111110111110001001110        495
11111111110111110001001110        495
11111111110111110001001110        495
11111111110111110001001110        495
11111111110111110001001110        495
11111111110111110001001110        495
11111111110111110001001110        495
11111111110111110001001110        495
11111111110111110001001110        495
11111111110111110001001110        495
11111111110111110001001110        495
11111111110111110001001110        495
11111111110111110001001110        495
11111111110111110001001110        495
11111111110111110001001110        495
11111111110111110001001110        495
11111111110111110001001110        495
11111111110111110001001110        495
11111111110111110001001110        495
11111111110111110001001110        495
11111111110111110001001110        495
11111111110111110001001110        495
11111111110111110001001110        495
11111111110111110001001110        495
11111111110111110001001110        495
11111111110111110001001110        495
11111111110111110001001110        495
11111111110111110001001110        495
11111111110111110001001110        495
11111111110111110001001110        495
11111111110111110001001110        495
11111111110111110001001110        495
11111111110111110001001110        495
11111111110111110001001110        495
11111111110111110001001110        495
11111111110111110001001110        495
11111111110111110001001110        495
11111111110111110001001110        495
11111111110111110001001110        495
11111111110111110001001110        495
11111111110111110001001110        495
11111111110111110001001110        495
11111111110111110001001110        495
11111111110111110001001110        495
11111111110111110001001110        495
11111111110111110001001110        495
11111111110111110001001110        495
11111111110111110001001110        495
11111111110111110001001110        495
11111111110111110001001110        495
11111111110111110001001110        495
11111111110111110001001110        495
11111111110111110001001110        495
11111111110111110001001110        495
11111111110111110001001110        495
11111111110111110001001110        495
11111111110111110001001110        495
11111111110111110001001110        495
11111111110111110001001110        495
11111111110111110001001110        495
11111111110111110001001110        495
11111111110111110001001110        495
11111111110111110001001110        495
11111111110111110001001110        495
11111111110111110001001110        495
11111111110111110001001110        495
11111111110111110001001110        495
11111111110111110001001110        495
11111111110111110001001110        495
11111111110111110001001110        495
11111111110111110001001110        495
11111111110111110001001110        495
11111111110111110001001110        495
11111111110111110001001110        495
11111111110111110001001110        495
11111111110111110001001110        495
11111111110111110001001110        495
11111111110111110001001110        495
11111111110111110001001110        495
11111111110111110001001110        495
11111111110111110001001110        495
11111111110111110001001110        495
11111111110111110001001110        495
11111111110111110001001110        495
11111111110111110001001110        495
11111111110111110001001110        495
11111111110111110001001110        495
11111111110111110001001110        495
11111111110111110001001110        495
11111111110111110001001110        495
11111111110111110001001110        495
11111111110111110001001110        495
11111111110111110001001110        495
11111111110111110001001110        495
11111111110111110001001110        495
11111111110111110001001110        495
11111111110111110001001110        495
11111111110111110001001110        495
11111111110111110001001110        495
11111111110111110001001110        495
11111111110111110001001110        495
11111111110111110001001110        495
11111111110111110001001110        495
11111111110111110001001110        495
11111111110111110001001110        495
11111111110111110001001110        495
11111111110111110001001110        495
11111111110111110001001110        495
11111111110111110001001110        495
11111111110111110001001110        495
11111111110111110001001110        495
11111111110111110001001110        495
11111111110111110001001110        495
11111111110111110001001110        495
11111111110111110001001110        495
11111111110111110001001110        495
11111111110111110001001110        495
11111111110111110001001110        495
11111111110111110001001110        495
11111111110111110001001110        495
11111111110111110001001110        495
11111111110111110001001110        495
11111111110111110001001110        495
11111111110111110001001110        495
11111111110111110001001110        495
11111111110111110001001110        495
11111111110111110001001110        495
11111111110111110001001110        495
11111111110111110001001110        495
11111111110111110001001110        495
11111111110111110001001110        495
11111111110111110001001110        495
11111111110111110001001110        495
11111111110111110001001110        495
11111111110111110001001110        495
11111111110111110001001110        495
11111111110111110001001110        495
11111111110111110001001110        495
11111111110111110001001110        495
11111111110111110001001110        495
11111111110111110001001110        495
11111111110111110001001110        495
11111111110111110001001110        495
11111111110111110001001110        495
11111111110111110001001110        495
11111111110111110001001110        495
